1396
1500000
986458
986458
986458
986458
986458
986458
986458
986458
986039
986039
986039
986039
986039
986039
986039
986039
986039
986039
986039
986039
986039
986039
983659
983659
983659
983659
983659
983659
983659
983659
980604
980604
980604
980604
980604
980604
980604
980604
980604
980604
980604
969516
969516
969516
969516
969516
969516
969516
969516
969516
969516
969516
969516
969516
969516
969516
969516
969516
969516
954987
954987
954987
945440
945440
945440
945440
945440
945440
945440
945440
945440
945440
945440
940174
940174
940174
940174
940174
940174
940174
940174
938164
938164
938164
938164
938164
938164
938164
938164
938164
938164
938164
938164
938164
938164
938164
938164
938164
938164
938164
938164
930772
930772
930772
930772
930772
930772
930772
930772
930772
930772
930772
930772
930772
930772
930772
930772
930772
930772
930772
925765
925765
925765
925765
925765
925765
925765
925765
925765
925765
925765
925765
919740
919740
919740
919740
919740
919740
919026
919026
919026
919026
919026
919026
919026
919026
919026
919026
919026
919026
919026
919026
919026
919026
919026
919026
919026
919026
918776
918776
918776
918776
918776
918776
918776
918776
918776
918776
918776
918776
918776
918776
918776
918776
918776
918776
918776
918776
911813
911813
911813
911813
911813
911813
902412
902412
902412
902412
902412
902412
902412
902412
902412
901254
901254
901254
901254
901254
901254
901254
901209
901209
901209
901209
901209
901209
901209
901209
901209
901209
892071
892071
892071
892071
892071
892071
892071
892071
892071
892071
892071
892071
889549
889549
889549
889549
889549
889549
889549
889549
889549
889549
889549
884027
884027
884027
884027
884027
878356
878356
878356
873857
873857
873857
873857
873857
873857
873857
873857
873857
873857
873857
873857
873857
873857
873857
873857
873857
865470
860455
860455
860455
860455
860455
860455
860455
860455
860455
851694
851694
851694
851694
851694
851694
851694
851694
851694
851694
851694
851694
851694
851550
851550
851550
851550
851550
851550
851550
851550
851550
851550
851550
851550
851550
851550
851550
851550
851550
851550
849555
849555
849555
849555
849555
849555
849555
849555
849555
849555
849555
849555
849555
849555
849555
849555
849555
846956
846956
846956
846956
846956
846956
846956
846956
846956
846956
846956
846956
846956
846956
846956
839691
839691
839691
824685
824685
824685
824685
824685
824685
824685
824685
824685
819834
819834
819834
819834
819834
819834
819834
819834
819834
819834
819834
807507
807507
807507
807507
804442
804442
804442
803330
803330
803330
803330
803330
803330
803330
800928
800928
800928
800928
800928
800928
800928
800928
800928
800928
800928
800928
800928
800928
796367
796367
796367
796367
796367
796367
796367
796367
796367
796367
796367
796367
796367
796367
796367
796367
796367
796367
796367
784820
784820
784820
784820
784820
784820
784820
784820
784820
784820
784820
784820
784820
784820
784820
784820
784820
784820
784820
784820
783110
783110
783110
783110
783110
783110
783110
783110
783110
783110
783110
773996
773996
773996
773996
773996
773996
773996
773996
773996
773996
773996
773996
740191
740191
740191
740191
728750
728750
728750
728750
728750
728750
728750
728750
728750
728750
728750
728750
728750
728750
728750
719986
719986
719986
719986
719986
719986
719986
719986
719986
719986
719986
719986
719986
719986
719986
719986
719986
719986
719986
716460
716460
716460
716460
716460
716460
716460
716460
716460
716460
716460
716460
716460
716460
716460
716460
716460
716460
716460
715962
715962
715962
715962
715962
715962
715962
715962
715962
715962
715962
715962
715962
715962
715962
715962
715962
715962
711074
711074
711074
711074
711074
711074
711074
711074
711074
711074
711074
690106
690106
690106
690106
690106
690106
690106
690106
690106
690106
690106
690106
690106
690106
690106
689199
689199
689199
689199
689199
689199
689199
689199
689199
689199
689199
689199
689199
689199
689199
684241
684241
684241
684241
684241
684241
684241
684241
684241
684241
684241
684241
684241
684241
674223
674223
674223
674223
674223
674223
674223
674223
674223
674223
674223
674223
674223
674223
674223
674223
674223
674223
669825
669825
669825
669825
669825
669825
669825
669825
669825
669825
669825
669825
669825
669825
669825
669825
669825
669825
664356
664356
664356
664356
664356
664356
664356
663539
663539
663539
663539
663539
663539
663539
663539
661934
661934
661670
661670
661670
656552
656552
656552
656552
656552
656552
656552
646530
646530
646530
646530
646530
646530
646530
646530
646530
646305
646305
646305
646305
646305
646305
646305
646305
646305
646305
646305
646305
646305
646305
646305
646305
637939
637939
637939
637939
637939
637939
637939
637939
637939
637939
637939
637939
637939
637939
636844
636844
636844
636844
636844
636844
636844
636844
636844
636844
636844
636844
636238
636238
628448
628448
628448
628448
628448
628448
628448
628448
628448
628448
628448
611690
611690
611690
609766
609766
609766
609766
606860
606860
606860
606860
606860
606860
597845
597845
597845
597845
597845
597845
597845
597845
597845
597845
597845
597845
597845
597845
597845
597845
592621
592621
592621
592621
592621
592621
592621
592621
592621
588049
588049
588049
588049
588049
588049
588049
588049
588049
588049
588049
588049
588049
585562
585562
585562
585562
585562
585562
585562
582467
582467
582467
582467
582190
582190
582190
582190
582190
582190
582190
577230
577230
577230
577230
564857
564857
564857
552928
552928
552928
552928
552928
552928
552928
552928
552928
552928
552928
552928
552928
552928
552928
552928
552928
552928
552928
552928
547126
547126
547126
547126
547126
547126
547126
542468
542468
542468
542468
542468
542468
542468
542468
542468
542468
542468
542468
542468
542468
542468
542468
539856
539856
539856
539856
539856
539856
539856
539856
539856
539856
539856
539856
539856
539856
539856
515824
515824
515824
515824
515824
515824
515824
515824
515824
515824
515824
515824
515824
515824
515824
515824
515824
515824
505854
505854
505854
503077
503077
503077
503077
503077
503077
503077
503077
503077
503077
503077
503077
503077
503077
503077
500420
500420
500420
500420
500420
500420
500420
500193
500193
500193
500193
485153
482543
482543
482543
482543
482543
482543
482543
482543
482543
482543
482543
472289
472289
472289
472289
472289
472289
472289
472289
472289
472289
461170
461170
461170
451456
451456
451456
451456
451456
451456
451456
451456
451456
451456
451456
451456
451456
451456
451456
451456
451456
451456
451456
449319
449319
449319
449319
449319
449319
449319
449319
449319
449319
449319
449319
449319
419696
419696
419696
419696
419696
419696
419696
419696
419696
419696
419696
419696
419696
419696
419696
419696
419696
419696
419696
419510
419510
419510
419510
419510
419510
419510
419510
419510
419510
419510
419510
419510
406091
406091
406091
406091
406091
406091
406091
403978
403978
403978
403978
403978
403978
403978
403978
403978
403978
403978
403978
403978
403978
403978
403978
403978
403978
403978
403978
396726
396726
395901
395901
395901
395901
392983
392983
379288
379288
379288
379288
379288
379288
379288
379288
379288
379288
379288
379288
379288
379288
379288
374479
374479
374479
374479
374479
374479
374479
374479
372451
372451
372451
372451
372451
372451
372451
372451
372451
372451
372451
372451
372451
372451
372451
372451
372451
372451
371995
371995
371995
371995
371995
371995
371995
371995
371995
371995
371995
371995
371995
371995
371995
371995
371995
371995
363555
363555
363555
363555
363555
363555
363555
363555
363555
363555
363555
363555
363555
363555
363555
363555
363555
363555
362512
362512
362512
362512
362512
362512
362512
362512
362512
362512
362512
362512
362512
362512
362512
362512
362512
362512
362512
362512
350460
350460
350460
350460
350460
350460
346217
324890
324890
324890
324890
324890
324890
324890
324890
324890
324890
324890
324890
324890
322237
322237
322237
322237
322237
322237
322237
322237
322237
322237
322237
322237
322237
322237
322237
322237
322237
322237
322237
322237
317859
317859
317859
317859
317859
317859
317859
317859
317859
317859
317859
317859
317859
317859
302843
302843
302843
302843
302843
302843
302843
302843
302843
302843
302843
302843
300256
300256
300256
300256
300256
300256
300256
296949
296949
296949
294968
294968
294968
294968
294968
294968
294968
294968
294968
294968
294968
294968
294968
294968
294968
294968
294968
294968
294633
294633
294633
294633
294633
294633
294633
294633
294633
294563
284575
284575
284575
284575
284575
284575
284575
284575
284575
284575
284575
284575
284575
284575
284575
284575
284575
284575
284575
282842
282842
282842
282842
282842
282842
282842
282842
282842
282842
282842
282842
282842
282842
282842
282842
282842
282842
275878
275878
275878
275878
275878
275878
275878
275878
275878
275878
275878
275878
275878
275878
275878
275878
275878
275878
264636
264636
264636
264636
264636
264636
264636
264636
264636
264636
264636
264636
264636
264636
264636
253058
253058
253058
253058
253058
253058
253058
253058
253058
253058
253058
253058
253058
253058
253058
253058
252302
252302
252302
252302
252302
252302
252302
252302
252302
252302
252302
252302
252302
252302
252302
252302
252302
252302
236228
236228
236228
235329
235329
235329
235329
235329
235329
235329
235329
235329
235329
235329
235329
235329
235329
235329
235329
225891
225891
225891
225891
225891
225891
225891
225891
225891
225891
225891
225891
225891
225891
225891
225891
225891
225891
225891
225891
225796
225796
225796
225796
225796
225796
225796
225796
225796
225796
225796
225796
225796
225796
225796
225796
219995
219995
219995
219995
213856
213856
213856
213856
213856
213856
213856
213856
213856
213856
213856
213856
213856
213856
213856
213856
213856
213856
213856
213856
206962
206962
206962
206962
206962
206962
